NAME: random_60_1
TYPE: TSP
COMMENT: random_60_1
DIMENSION: 60
EDGE_WEIGHT_TYPE: EUC_2D
NODE_COORD_SECTION
1 180 110
2 55 264
3 335 5
4 257 203
5 82 61
6 400 313
7 268 234
8 369 489
9 435 303
10 9 180
11 471 45
12 263 151
13 481 322
14 239 195
15 7 117
16 324 496
17 432 296
18 37 279
19 18 320
20 79 16
21 310 21
22 138 345
23 84 422
24 496 488
25 133 300
26 348 160
27 438 65
28 242 342
29 326 436
30 380 323
31 100 284
32 301 263
33 477 5
34 19 240
35 267 68
36 325 382
37 403 51
38 382 360
39 94 267
40 211 64
41 304 8
42 398 335
43 28 377
44 330 420
45 265 400
46 83 377
47 44 264
48 388 413
49 44 498
50 319 213
51 147 21
52 148 377
53 294 368
54 221 252
55 418 415
56 274 32
57 257 470
58 63 168
59 421 393
60 80 396
